benchmarks_CP/INST_64x64/40/inst64x64_40_98.dzn
S=8;
start=[|
14,	4,	-1,	3,	-1,	-1,	54,	44,	-1,	36,	-1,	51,	-1,	-1,	9,	11,	-1,	-1,	12,	2,	-1,	63,	-1,	-1,	-1,	-1,	-1,	53,	47,	64,	-1,	-1,	-1,	-1,	-1,	-1,	62,	58,	-1,	21,	10,	26,	43,	-1,	27,	56,	8,	-1,	49,	-1,	28,	-1,	42,	-1,	-1,	-1,	-1,	-1,	5,	-1,	61,	-1,	-1,	-1|
-1,	16,	-1,	-1,	-1,	-1,	-1,	-1,	-1,	56,	-1,	-1,	-1,	20,	-1,	-1,	28,	27,	-1,	58,	-1,	-1,	-1,	-1,	-1,	-1,	38,	-1,	36,	-1,	13,	49,	-1,	11,	-1,	-1,	-1,	-1,	-1,	39,	-1,	-1,	-1,	64,	-1,	34,	61,	-1,	1,	25,	-1,	-1,	-1,	15,	-1,	-1,	-1,	6,	32,	-1,	-1,	-1,	60,	-1|
7,	22,	-1,	34,	-1,	19,	52,	-1,	-1,	-1,	-1,	41,	-1,	-1,	-1,	30,	-1,	1,	61,	29,	-1,	3,	56,	-1,	-1,	15,	-1,	-1,	25,	44,	-1,	9,	-1,	-1,	-1,	-1,	-1,	-1,	13,	5,	20,	-1,	-1,	53,	-1,	-1,	-1,	-1,	60,	33,	-1,	14,	58,	-1,	45,	-1,	-1,	-1,	-1,	-1,	-1,	4,	18,	42|
58,	-1,	43,	-1,	-1,	39,	-1,	30,	-1,	-1,	-1,	47,	-1,	4,	-1,	54,	59,	8,	-1,	-1,	-1,	46,	23,	-1,	48,	-1,	-1,	-1,	-1,	-1,	61,	-1,	-1,	36,	-1,	25,	-1,	-1,	31,	-1,	-1,	-1,	-1,	-1,	-1,	-1,	-1,	-1,	-1,	11,	56,	-1,	-1,	34,	-1,	32,	13,	49,	14,	44,	-1,	28,	-1,	-1|
-1,	46,	60,	53,	-1,	47,	-1,	-1,	2,	-1,	-1,	58,	33,	13,	-1,	-1,	-1,	-1,	-1,	-1,	-1,	62,	-1,	-1,	-1,	-1,	51,	-1,	-1,	-1,	-1,	59,	-1,	38,	15,	-1,	-1,	45,	42,	20,	14,	55,	22,	21,	-1,	-1,	25,	57,	-1,	-1,	-1,	43,	-1,	-1,	-1,	44,	-1,	-1,	41,	-1,	-1,	52,	26,	29|
-1,	56,	-1,	-1,	29,	-1,	-1,	36,	-1,	-1,	-1,	-1,	45,	22,	61,	-1,	44,	-1,	25,	-1,	-1,	-1,	-1,	-1,	60,	1,	11,	-1,	-1,	62,	34,	17,	26,	-1,	-1,	23,	-1,	-1,	-1,	-1,	58,	-1,	28,	-1,	-1,	42,	-1,	-1,	-1,	4,	9,	-1,	-1,	57,	63,	55,	-1,	48,	-1,	27,	-1,	-1,	-1,	-1|
-1,	55,	57,	11,	-1,	-1,	20,	13,	-1,	-1,	-1,	-1,	44,	-1,	-1,	6,	43,	31,	64,	-1,	-1,	-1,	-1,	-1,	58,	-1,	14,	54,	-1,	-1,	-1,	-1,	52,	-1,	9,	34,	48,	4,	1,	-1,	7,	-1,	62,	12,	-1,	-1,	24,	-1,	22,	-1,	-1,	30,	-1,	-1,	-1,	-1,	-1,	2,	-1,	-1,	-1,	-1,	21,	-1|
45,	37,	25,	-1,	61,	-1,	-1,	-1,	49,	-1,	-1,	-1,	-1,	-1,	64,	-1,	-1,	10,	-1,	-1,	-1,	-1,	-1,	-1,	33,	5,	-1,	-1,	-1,	24,	-1,	-1,	-1,	3,	56,	54,	63,	-1,	-1,	-1,	-1,	32,	-1,	-1,	-1,	-1,	-1,	59,	-1,	-1,	-1,	48,	-1,	46,	-1,	-1,	58,	-1,	11,	-1,	-1,	-1,	-1,	62|
-1,	1,	9,	-1,	-1,	12,	-1,	6,	-1,	24,	49,	-1,	40,	-1,	-1,	26,	-1,	15,	-1,	34,	-1,	33,	-1,	52,	-1,	-1,	35,	58,	-1,	-1,	-1,	-1,	7,	-1,	-1,	-1,	-1,	43,	-1,	-1,	19,	-1,	-1,	5,	-1,	62,	13,	-1,	18,	36,	-1,	55,	-1,	39,	-1,	-1,	-1,	-1,	-1,	-1,	21,	42,	8,	-1|
60,	-1,	52,	-1,	-1,	55,	-1,	-1,	36,	58,	30,	-1,	-1,	-1,	41,	-1,	6,	-1,	-1,	24,	-1,	47,	-1,	-1,	14,	48,	62,	-1,	-1,	-1,	-1,	54,	-1,	-1,	-1,	-1,	13,	-1,	33,	-1,	-1,	-1,	-1,	38,	-1,	-1,	-1,	-1,	-1,	31,	-1,	4,	3,	16,	-1,	63,	-1,	-1,	-1,	43,	-1,	32,	-1,	37|
-1,	31,	49,	-1,	-1,	-1,	36,	-1,	-1,	-1,	-1,	19,	52,	1,	-1,	-1,	18,	-1,	9,	-1,	-1,	45,	-1,	-1,	53,	-1,	59,	-1,	22,	55,	-1,	-1,	16,	35,	14,	-1,	-1,	-1,	-1,	24,	56,	-1,	17,	-1,	-1,	48,	-1,	54,	62,	-1,	-1,	-1,	34,	-1,	27,	-1,	-1,	10,	30,	-1,	51,	63,	-1,	-1|
-1,	-1,	-1,	-1,	34,	-1,	-1,	-1,	59,	-1,	33,	-1,	2,	-1,	60,	-1,	36,	-1,	-1,	17,	-1,	-1,	26,	50,	-1,	-1,	1,	-1,	-1,	49,	47,	45,	56,	-1,	-1,	-1,	-1,	-1,	-1,	-1,	-1,	12,	-1,	43,	-1,	-1,	-1,	21,	-1,	-1,	-1,	-1,	53,	30,	13,	57,	-1,	39,	-1,	-1,	18,	20,	28,	-1|
-1,	-1,	-1,	-1,	-1,	-1,	-1,	42,	-1,	-1,	-1,	-1,	-1,	27,	11,	-1,	16,	-1,	-1,	-1,	-1,	-1,	-1,	10,	20,	57,	41,	-1,	30,	-1,	-1,	6,	-1,	-1,	-1,	5,	-1,	-1,	-1,	-1,	34,	-1,	-1,	37,	-1,	-1,	23,	-1,	-1,	-1,	-1,	-1,	51,	-1,	1,	-1,	-1,	59,	-1,	-1,	62,	-1,	14,	-1|
13,	-1,	-1,	-1,	45,	-1,	62,	-1,	-1,	51,	21,	-1,	-1,	-1,	-1,	-1,	-1,	60,	49,	-1,	-1,	-1,	5,	-1,	-1,	43,	-1,	-1,	40,	-1,	-1,	27,	-1,	39,	-1,	10,	38,	64,	58,	54,	-1,	-1,	36,	22,	-1,	35,	-1,	61,	-1,	-1,	-1,	-1,	52,	56,	26,	-1,	-1,	15,	-1,	-1,	-1,	16,	1,	50|
16,	50,	-1,	-1,	-1,	-1,	58,	37,	-1,	-1,	17,	34,	22,	-1,	-1,	62,	-1,	7,	27,	-1,	-1,	-1,	14,	-1,	-1,	23,	10,	-1,	-1,	-1,	26,	51,	-1,	-1,	-1,	-1,	-1,	-1,	-1,	53,	-1,	46,	-1,	-1,	-1,	49,	-1,	11,	20,	21,	-1,	61,	-1,	-1,	41,	43,	52,	-1,	-1,	-1,	-1,	60,	-1,	36|
51,	-1,	-1,	-1,	-1,	-1,	4,	-1,	35,	16,	43,	-1,	-1,	50,	-1,	45,	-1,	23,	21,	-1,	11,	-1,	48,	-1,	7,	-1,	-1,	-1,	-1,	-1,	24,	-1,	37,	-1,	12,	-1,	-1,	57,	-1,	-1,	-1,	-1,	47,	8,	1,	-1,	-1,	31,	46,	-1,	-1,	19,	-1,	58,	-1,	5,	-1,	-1,	-1,	-1,	-1,	34,	2,	38|
-1,	-1,	17,	-1,	-1,	-1,	-1,	49,	11,	-1,	15,	-1,	8,	51,	-1,	5,	-1,	-1,	-1,	54,	53,	1,	58,	-1,	-1,	-1,	-1,	-1,	-1,	12,	10,	63,	-1,	-1,	2,	-1,	-1,	33,	-1,	-1,	-1,	20,	56,	39,	-1,	-1,	21,	24,	-1,	-1,	-1,	35,	-1,	28,	-1,	64,	-1,	-1,	-1,	47,	-1,	-1,	-1,	40|
-1,	-1,	46,	-1,	41,	-1,	-1,	-1,	-1,	12,	-1,	29,	-1,	-1,	-1,	-1,	-1,	33,	13,	-1,	-1,	-1,	-1,	64,	40,	24,	-1,	-1,	34,	-1,	1,	-1,	-1,	-1,	-1,	32,	-1,	44,	8,	48,	-1,	60,	4,	-1,	58,	37,	-1,	-1,	-1,	10,	39,	26,	45,	42,	-1,	-1,	-1,	61,	-1,	-1,	15,	-1,	56,	63|
-1,	-1,	-1,	-1,	-1,	44,	-1,	-1,	-1,	-1,	4,	63,	26,	18,	43,	-1,	34,	-1,	-1,	-1,	10,	19,	27,	-1,	21,	-1,	-1,	-1,	52,	-1,	-1,	53,	-1,	-1,	-1,	42,	-1,	-1,	56,	-1,	45,	48,	-1,	-1,	-1,	-1,	-1,	-1,	-1,	9,	11,	-1,	-1,	-1,	-1,	-1,	-1,	-1,	-1,	-1,	31,	12,	-1,	-1|
32,	-1,	-1,	14,	8,	-1,	61,	33,	-1,	-1,	-1,	-1,	-1,	-1,	52,	17,	-1,	28,	-1,	-1,	7,	36,	-1,	-1,	25,	22,	-1,	45,	-1,	-1,	56,	-1,	43,	-1,	46,	29,	53,	21,	-1,	-1,	-1,	-1,	18,	26,	11,	-1,	62,	-1,	30,	27,	-1,	47,	-1,	-1,	-1,	50,	37,	-1,	-1,	59,	-1,	-1,	-1,	-1|
47,	-1,	19,	-1,	56,	64,	42,	-1,	-1,	50,	-1,	-1,	-1,	-1,	48,	-1,	-1,	30,	-1,	-1,	-1,	8,	45,	-1,	23,	-1,	-1,	-1,	-1,	27,	9,	15,	-1,	1,	60,	38,	12,	-1,	-1,	-1,	-1,	61,	-1,	32,	-1,	-1,	-1,	-1,	24,	-1,	51,	25,	-1,	21,	-1,	-1,	-1,	-1,	2,	-1,	35,	-1,	-1,	-1|
1,	-1,	-1,	37,	-1,	-1,	35,	-1,	-1,	-1,	-1,	-1,	-1,	-1,	22,	-1,	-1,	5,	-1,	-1,	25,	21,	32,	49,	-1,	-1,	-1,	-1,	33,	29,	3,	-1,	55,	-1,	13,	26,	-1,	59,	-1,	19,	-1,	50,	-1,	63,	7,	31,	34,	-1,	-1,	-1,	43,	18,	-1,	61,	40,	-1,	27,	-1,	-1,	-1,	-1,	-1,	17,	28|
-1,	-1,	39,	10,	6,	-1,	28,	-1,	19,	-1,	45,	-1,	-1,	42,	-1,	-1,	-1,	-1,	-1,	35,	-1,	-1,	60,	-1,	-1,	7,	8,	11,	-1,	48,	17,	-1,	-1,	50,	52,	3,	-1,	-1,	20,	-1,	12,	-1,	-1,	-1,	-1,	-1,	53,	5,	-1,	-1,	-1,	-1,	-1,	-1,	-1,	-1,	51,	46,	-1,	-1,	-1,	43,	-1,	44|
57,	-1,	-1,	63,	-1,	62,	50,	-1,	60,	14,	56,	-1,	-1,	21,	-1,	33,	-1,	11,	-1,	6,	-1,	-1,	-1,	-1,	-1,	-1,	-1,	-1,	26,	41,	-1,	35,	-1,	37,	-1,	7,	-1,	-1,	5,	-1,	2,	-1,	42,	23,	-1,	47,	17,	-1,	8,	-1,	-1,	-1,	38,	36,	55,	-1,	4,	-1,	22,	-1,	53,	-1,	45,	25|
-1,	19,	61,	56,	20,	-1,	64,	17,	-1,	31,	-1,	-1,	-1,	-1,	38,	41,	-1,	-1,	-1,	-1,	46,	44,	-1,	-1,	2,	-1,	-1,	-1,	37,	-1,	-1,	-1,	-1,	-1,	-1,	-1,	-1,	-1,	3,	-1,	-1,	15,	-1,	49,	-1,	-1,	-1,	-1,	-1,	-1,	13,	-1,	36,	4,	-1,	58,	18,	-1,	7,	-1,	-1,	-1,	-1,	12|
-1,	-1,	12,	-1,	7,	28,	-1,	-1,	-1,	-1,	55,	27,	-1,	-1,	24,	-1,	23,	36,	-1,	11,	-1,	-1,	21,	-1,	-1,	-1,	47,	19,	6,	-1,	-1,	-1,	44,	31,	33,	-1,	-1,	25,	-1,	56,	17,	-1,	-1,	9,	-1,	-1,	4,	-1,	-1,	42,	64,	-1,	-1,	20,	10,	1,	-1,	-1,	40,	-1,	14,	-1,	37,	57|
-1,	10,	-1,	-1,	-1,	42,	-1,	-1,	-1,	33,	16,	-1,	-1,	-1,	59,	40,	-1,	-1,	-1,	61,	-1,	14,	-1,	43,	-1,	-1,	-1,	25,	-1,	-1,	-1,	-1,	-1,	-1,	-1,	-1,	-1,	-1,	64,	-1,	-1,	34,	-1,	51,	26,	-1,	-1,	55,	38,	-1,	37,	-1,	-1,	7,	-1,	-1,	3,	21,	-1,	-1,	-1,	-1,	20,	-1|
34,	-1,	-1,	-1,	50,	26,	13,	32,	-1,	22,	-1,	-1,	-1,	25,	-1,	-1,	-1,	-1,	-1,	-1,	9,	27,	-1,	-1,	-1,	14,	21,	-1,	7,	20,	30,	-1,	-1,	-1,	17,	-1,	54,	40,	-1,	-1,	-1,	-1,	-1,	-1,	45,	-1,	-1,	-1,	43,	-1,	-1,	59,	35,	-1,	15,	-1,	31,	42,	8,	48,	-1,	-1,	11,	-1|
-1,	-1,	-1,	39,	16,	-1,	38,	-1,	12,	23,	-1,	-1,	-1,	52,	-1,	-1,	-1,	6,	20,	3,	-1,	55,	37,	-1,	17,	51,	-1,	-1,	63,	53,	-1,	-1,	-1,	-1,	43,	14,	11,	8,	-1,	-1,	31,	-1,	-1,	-1,	42,	27,	-1,	13,	-1,	46,	34,	-1,	-1,	-1,	-1,	18,	62,	-1,	-1,	-1,	-1,	-1,	-1,	1|
-1,	29,	-1,	-1,	25,	1,	30,	-1,	-1,	-1,	-1,	-1,	42,	36,	35,	44,	-1,	-1,	22,	-1,	-1,	-1,	-1,	40,	-1,	-1,	-1,	57,	61,	60,	52,	-1,	63,	-1,	-1,	46,	-1,	-1,	47,	-1,	-1,	-1,	-1,	11,	-1,	33,	43,	-1,	-1,	-1,	-1,	-1,	-1,	14,	51,	19,	9,	-1,	6,	38,	-1,	-1,	4,	-1|
-1,	-1,	8,	2,	-1,	9,	-1,	-1,	56,	-1,	61,	46,	-1,	6,	-1,	-1,	-1,	42,	-1,	51,	-1,	-1,	-1,	25,	-1,	-1,	40,	16,	28,	15,	49,	36,	-1,	-1,	30,	-1,	60,	19,	-1,	4,	-1,	-1,	32,	-1,	-1,	-1,	1,	-1,	-1,	-1,	-1,	27,	-1,	-1,	-1,	-1,	34,	23,	43,	-1,	29,	44,	-1,	-1|
11,	-1,	-1,	-1,	-1,	-1,	-1,	-1,	-1,	-1,	62,	-1,	9,	-1,	-1,	-1,	47,	-1,	-1,	-1,	19,	-1,	29,	60,	-1,	-1,	-1,	-1,	41,	-1,	-1,	-1,	-1,	-1,	58,	-1,	-1,	37,	61,	-1,	28,	-1,	-1,	3,	-1,	-1,	44,	6,	63,	-1,	-1,	-1,	-1,	12,	21,	-1,	-1,	55,	25,	64,	16,	-1,	46,	5|
-1,	-1,	34,	-1,	39,	-1,	-1,	46,	45,	-1,	-1,	-1,	-1,	-1,	-1,	-1,	-1,	32,	-1,	-1,	1,	48,	47,	-1,	10,	6,	54,	-1,	-1,	14,	-1,	-1,	-1,	8,	-1,	-1,	21,	29,	-1,	-1,	-1,	-1,	12,	-1,	-1,	-1,	56,	-1,	-1,	28,	57,	49,	24,	59,	-1,	-1,	-1,	40,	61,	33,	-1,	-1,	-1,	4|
-1,	-1,	-1,	60,	13,	-1,	2,	64,	-1,	-1,	-1,	21,	-1,	-1,	19,	-1,	-1,	20,	-1,	43,	-1,	29,	28,	-1,	15,	58,	16,	4,	12,	5,	-1,	-1,	61,	-1,	-1,	-1,	57,	-1,	-1,	59,	-1,	-1,	-1,	55,	-1,	-1,	-1,	-1,	-1,	35,	-1,	-1,	30,	6,	-1,	-1,	-1,	50,	-1,	-1,	-1,	-1,	-1,	-1|
-1,	27,	-1,	-1,	48,	16,	-1,	43,	10,	53,	-1,	-1,	60,	32,	20,	63,	-1,	-1,	38,	45,	54,	-1,	-1,	-1,	29,	-1,	-1,	56,	-1,	40,	36,	52,	-1,	-1,	-1,	33,	44,	9,	11,	-1,	8,	-1,	46,	-1,	-1,	26,	-1,	-1,	-1,	-1,	-1,	21,	4,	-1,	14,	47,	24,	-1,	-1,	-1,	-1,	-1,	23,	35|
-1,	17,	4,	-1,	-1,	-1,	-1,	53,	23,	6,	48,	-1,	-1,	-1,	18,	-1,	11,	9,	-1,	-1,	-1,	-1,	-1,	39,	27,	-1,	-1,	42,	-1,	37,	25,	13,	-1,	-1,	-1,	-1,	-1,	-1,	50,	-1,	29,	-1,	21,	-1,	-1,	44,	32,	-1,	19,	-1,	55,	-1,	16,	8,	-1,	-1,	10,	54,	-1,	7,	-1,	41,	59,	-1|
-1,	-1,	-1,	-1,	-1,	-1,	-1,	-1,	-1,	-1,	-1,	-1,	-1,	-1,	-1,	-1,	-1,	-1,	24,	-1,	-1,	-1,	10,	41,	63,	-1,	-1,	-1,	59,	47,	44,	11,	-1,	-1,	-1,	-1,	37,	-1,	22,	-1,	-1,	30,	-1,	1,	57,	-1,	6,	-1,	-1,	64,	-1,	34,	13,	5,	-1,	-1,	-1,	31,	-1,	-1,	-1,	-1,	-1,	45|
-1,	-1,	21,	-1,	-1,	10,	55,	-1,	17,	-1,	-1,	9,	39,	-1,	40,	-1,	30,	-1,	14,	46,	-1,	-1,	-1,	-1,	-1,	-1,	18,	-1,	32,	61,	-1,	-1,	-1,	-1,	-1,	-1,	-1,	62,	15,	13,	59,	16,	-1,	-1,	60,	-1,	-1,	-1,	23,	-1,	44,	-1,	-1,	-1,	2,	27,	-1,	-1,	51,	-1,	-1,	-1,	-1,	-1|
56,	12,	30,	-1,	-1,	-1,	-1,	-1,	4,	-1,	41,	-1,	58,	-1,	31,	-1,	-1,	44,	19,	-1,	37,	-1,	8,	-1,	62,	34,	64,	-1,	-1,	-1,	57,	33,	-1,	-1,	45,	20,	-1,	26,	10,	-1,	54,	18,	-1,	-1,	9,	61,	50,	14,	-1,	-1,	52,	-1,	-1,	-1,	39,	-1,	-1,	-1,	-1,	-1,	43,	-1,	-1,	-1|
-1,	32,	-1,	-1,	-1,	-1,	-1,	63,	-1,	-1,	59,	-1,	51,	-1,	-1,	-1,	-1,	16,	-1,	-1,	62,	61,	-1,	-1,	-1,	31,	-1,	-1,	46,	-1,	-1,	-1,	-1,	19,	-1,	-1,	-1,	-1,	48,	-1,	-1,	-1,	-1,	-1,	25,	15,	-1,	-1,	-1,	17,	-1,	-1,	22,	29,	33,	-1,	14,	-1,	64,	-1,	-1,	-1,	-1,	-1|
30,	-1,	45,	32,	-1,	-1,	-1,	14,	-1,	-1,	-1,	-1,	18,	23,	-1,	39,	-1,	-1,	-1,	-1,	-1,	-1,	-1,	-1,	-1,	29,	-1,	27,	11,	9,	40,	-1,	13,	-1,	-1,	-1,	-1,	61,	-1,	-1,	1,	47,	-1,	-1,	-1,	-1,	42,	-1,	-1,	-1,	-1,	-1,	-1,	-1,	-1,	-1,	-1,	-1,	-1,	-1,	54,	-1,	35,	33|
23,	51,	-1,	48,	-1,	27,	-1,	-1,	34,	-1,	14,	24,	-1,	-1,	-1,	32,	35,	59,	-1,	-1,	13,	-1,	-1,	-1,	-1,	41,	-1,	-1,	-1,	-1,	18,	-1,	22,	-1,	-1,	2,	-1,	-1,	-1,	-1,	-1,	9,	-1,	17,	-1,	-1,	58,	-1,	6,	-1,	-1,	-1,	47,	-1,	-1,	-1,	57,	44,	38,	-1,	-1,	-1,	-1,	-1|
-1,	-1,	58,	13,	-1,	-1,	47,	-1,	27,	-1,	-1,	54,	61,	-1,	-1,	-1,	57,	-1,	34,	32,	-1,	42,	-1,	-1,	1,	-1,	22,	-1,	24,	-1,	-1,	-1,	5,	-1,	-1,	-1,	-1,	-1,	60,	-1,	36,	-1,	31,	-1,	-1,	-1,	15,	44,	-1,	-1,	-1,	-1,	-1,	-1,	-1,	-1,	-1,	25,	-1,	-1,	3,	-1,	-1,	-1|
-1,	20,	-1,	41,	-1,	35,	-1,	31,	7,	-1,	-1,	12,	-1,	-1,	51,	38,	46,	-1,	-1,	-1,	24,	-1,	43,	5,	54,	-1,	-1,	-1,	60,	-1,	-1,	50,	-1,	6,	-1,	-1,	33,	-1,	-1,	-1,	23,	13,	34,	2,	-1,	-1,	-1,	-1,	61,	39,	-1,	52,	-1,	18,	-1,	-1,	-1,	-1,	42,	15,	-1,	-1,	-1,	-1|
-1,	-1,	-1,	-1,	-1,	46,	17,	-1,	9,	-1,	35,	-1,	-1,	-1,	-1,	-1,	-1,	-1,	-1,	47,	18,	-1,	50,	-1,	32,	21,	-1,	26,	13,	-1,	15,	-1,	38,	-1,	29,	-1,	-1,	-1,	40,	14,	43,	-1,	-1,	57,	-1,	-1,	-1,	-1,	-1,	-1,	25,	60,	-1,	-1,	22,	42,	-1,	-1,	56,	4,	-1,	45,	27,	49|
4,	15,	1,	64,	-1,	2,	-1,	50,	-1,	26,	-1,	-1,	41,	16,	-1,	60,	-1,	-1,	-1,	39,	-1,	58,	-1,	-1,	-1,	47,	28,	-1,	-1,	19,	-1,	20,	48,	23,	-1,	30,	24,	27,	-1,	-1,	35,	53,	49,	-1,	-1,	46,	29,	-1,	59,	62,	-1,	44,	56,	-1,	-1,	-1,	-1,	-1,	18,	-1,	-1,	40,	32,	11|
26,	42,	-1,	16,	-1,	-1,	-1,	-1,	-1,	37,	-1,	-1,	-1,	44,	-1,	-1,	9,	19,	-1,	12,	27,	-1,	-1,	63,	55,	-1,	-1,	-1,	49,	4,	-1,	38,	-1,	56,	18,	-1,	-1,	-1,	-1,	-1,	51,	59,	20,	54,	32,	8,	14,	-1,	21,	-1,	-1,	-1,	-1,	-1,	53,	-1,	-1,	-1,	-1,	-1,	22,	39,	50,	-1|
18,	-1,	54,	22,	-1,	-1,	19,	8,	-1,	-1,	-1,	-1,	-1,	-1,	-1,	-1,	1,	26,	60,	36,	-1,	-1,	-1,	62,	-1,	35,	61,	-1,	57,	-1,	-1,	-1,	-1,	-1,	53,	-1,	-1,	39,	-1,	42,	30,	45,	24,	-1,	-1,	40,	-1,	41,	33,	-1,	-1,	11,	-1,	27,	31,	-1,	43,	-1,	13,	29,	9,	-1,	-1,	59|
28,	-1,	-1,	-1,	59,	-1,	-1,	-1,	58,	-1,	-1,	22,	-1,	-1,	37,	57,	-1,	-1,	53,	-1,	-1,	64,	-1,	-1,	-1,	-1,	-1,	48,	1,	54,	-1,	-1,	-1,	-1,	-1,	-1,	-1,	38,	-1,	29,	-1,	-1,	-1,	-1,	55,	25,	63,	16,	27,	-1,	41,	-1,	-1,	-1,	56,	8,	-1,	26,	-1,	17,	-1,	-1,	-1,	-1|
-1,	-1,	-1,	-1,	35,	54,	-1,	-1,	64,	-1,	-1,	-1,	4,	5,	-1,	43,	41,	-1,	-1,	26,	52,	-1,	-1,	-1,	-1,	-1,	32,	-1,	-1,	50,	46,	-1,	-1,	-1,	-1,	-1,	-1,	36,	-1,	-1,	13,	6,	-1,	-1,	15,	-1,	-1,	23,	-1,	-1,	-1,	-1,	-1,	-1,	24,	-1,	7,	22,	3,	-1,	-1,	1,	31,	19|
36,	-1,	-1,	-1,	-1,	7,	32,	62,	-1,	-1,	-1,	-1,	48,	-1,	39,	-1,	-1,	-1,	-1,	-1,	23,	24,	2,	30,	-1,	-1,	-1,	-1,	-1,	-1,	20,	-1,	-1,	10,	-1,	31,	-1,	13,	-1,	-1,	-1,	-1,	27,	-1,	-1,	-1,	-1,	-1,	-1,	-1,	19,	-1,	17,	-1,	46,	-1,	-1,	11,	33,	61,	-1,	35,	63,	16|
-1,	63,	-1,	-1,	-1,	-1,	-1,	61,	-1,	-1,	19,	-1,	6,	-1,	15,	-1,	-1,	18,	-1,	-1,	45,	-1,	-1,	35,	-1,	-1,	-1,	55,	17,	-1,	7,	-1,	-1,	-1,	-1,	-1,	50,	-1,	21,	-1,	46,	-1,	38,	-1,	59,	39,	-1,	34,	-1,	16,	-1,	51,	-1,	-1,	-1,	-1,	-1,	43,	44,	37,	32,	-1,	-1,	47|
-1,	-1,	56,	-1,	-1,	13,	-1,	-1,	-1,	-1,	-1,	16,	1,	-1,	-1,	-1,	12,	43,	-1,	-1,	-1,	-1,	-1,	59,	-1,	45,	63,	22,	-1,	28,	31,	24,	-1,	-1,	-1,	53,	-1,	5,	37,	-1,	-1,	-1,	64,	-1,	-1,	58,	-1,	-1,	14,	-1,	-1,	-1,	-1,	-1,	6,	-1,	-1,	-1,	-1,	-1,	-1,	48,	25,	-1|
42,	-1,	41,	-1,	24,	14,	-1,	-1,	63,	-1,	51,	56,	29,	-1,	-1,	21,	60,	-1,	-1,	-1,	38,	-1,	13,	-1,	-1,	-1,	-1,	-1,	-1,	-1,	53,	44,	17,	-1,	-1,	-1,	-1,	16,	49,	-1,	26,	-1,	-1,	-1,	-1,	2,	-1,	48,	57,	-1,	59,	28,	20,	64,	5,	-1,	-1,	-1,	-1,	54,	-1,	58,	55,	-1|
8,	-1,	-1,	-1,	-1,	-1,	-1,	-1,	62,	-1,	-1,	-1,	36,	-1,	32,	-1,	-1,	4,	3,	-1,	-1,	-1,	-1,	58,	16,	38,	29,	14,	-1,	-1,	-1,	-1,	-1,	-1,	-1,	27,	-1,	-1,	25,	-1,	-1,	22,	-1,	-1,	-1,	-1,	5,	-1,	55,	-1,	26,	7,	-1,	31,	-1,	-1,	21,	-1,	-1,	12,	13,	51,	24,	56|
-1,	26,	-1,	12,	-1,	-1,	45,	-1,	-1,	-1,	2,	-1,	-1,	54,	-1,	59,	37,	14,	-1,	-1,	-1,	32,	63,	16,	19,	-1,	-1,	40,	-1,	-1,	-1,	-1,	51,	-1,	-1,	-1,	-1,	-1,	7,	47,	-1,	-1,	1,	20,	-1,	4,	36,	53,	25,	-1,	-1,	-1,	-1,	-1,	-1,	-1,	-1,	29,	-1,	-1,	-1,	-1,	62,	34|
-1,	-1,	-1,	-1,	58,	8,	23,	3,	-1,	42,	-1,	-1,	-1,	26,	57,	61,	53,	46,	-1,	16,	21,	-1,	36,	-1,	52,	-1,	-1,	-1,	-1,	10,	-1,	-1,	-1,	-1,	19,	59,	4,	-1,	-1,	-1,	-1,	-1,	-1,	-1,	-1,	-1,	-1,	-1,	-1,	54,	-1,	-1,	-1,	-1,	-1,	17,	33,	-1,	55,	34,	-1,	-1,	44,	-1|
-1,	9,	-1,	-1,	-1,	-1,	-1,	7,	-1,	-1,	-1,	-1,	56,	38,	-1,	49,	-1,	-1,	-1,	-1,	-1,	59,	52,	-1,	-1,	-1,	-1,	33,	-1,	-1,	-1,	-1,	-1,	61,	-1,	-1,	64,	23,	30,	-1,	21,	-1,	-1,	-1,	-1,	-1,	54,	-1,	28,	-1,	36,	5,	39,	55,	-1,	-1,	-1,	12,	-1,	16,	-1,	-1,	47,	-1|
-1,	49,	26,	61,	46,	-1,	-1,	1,	33,	-1,	-1,	-1,	21,	-1,	17,	-1,	-1,	38,	11,	13,	-1,	-1,	-1,	-1,	-1,	25,	43,	47,	31,	-1,	-1,	-1,	39,	7,	24,	12,	-1,	-1,	-1,	45,	-1,	-1,	-1,	-1,	34,	-1,	-1,	-1,	-1,	-1,	27,	56,	-1,	-1,	-1,	-1,	-1,	-1,	29,	-1,	-1,	5,	-1,	22|
-1,	-1,	33,	-1,	37,	-1,	11,	54,	55,	27,	-1,	-1,	-1,	45,	-1,	16,	25,	47,	-1,	-1,	42,	-1,	-1,	24,	-1,	-1,	12,	-1,	38,	21,	-1,	-1,	20,	-1,	8,	44,	22,	-1,	26,	60,	-1,	-1,	-1,	36,	-1,	-1,	-1,	17,	-1,	-1,	-1,	-1,	49,	2,	-1,	-1,	-1,	-1,	-1,	-1,	-1,	-1,	10,	-1|
-1,	-1,	-1,	-1,	27,	-1,	60,	19,	-1,	-1,	-1,	35,	28,	48,	-1,	-1,	10,	-1,	32,	-1,	-1,	-1,	-1,	-1,	-1,	-1,	39,	-1,	-1,	13,	-1,	41,	54,	29,	38,	21,	-1,	31,	-1,	-1,	-1,	-1,	-1,	-1,	52,	23,	-1,	-1,	-1,	-1,	-1,	-1,	43,	-1,	-1,	-1,	-1,	30,	62,	-1,	4,	-1,	-1,	6|
-1,	28,	2,	-1,	-1,	29,	10,	-1,	52,	-1,	-1,	-1,	-1,	53,	-1,	-1,	-1,	49,	31,	-1,	-1,	-1,	-1,	61,	-1,	-1,	36,	1,	-1,	-1,	-1,	-1,	46,	-1,	-1,	-1,	-1,	-1,	-1,	-1,	57,	38,	-1,	47,	35,	20,	-1,	-1,	-1,	-1,	16,	-1,	33,	-1,	-1,	21,	-1,	-1,	45,	-1,	-1,	25,	-1,	26|
-1,	38,	-1,	-1,	4,	30,	-1,	-1,	13,	-1,	6,	43,	54,	-1,	46,	-1,	7,	2,	29,	56,	-1,	-1,	-1,	34,	-1,	-1,	-1,	62,	-1,	-1,	-1,	-1,	-1,	-1,	-1,	-1,	-1,	11,	57,	-1,	-1,	-1,	-1,	-1,	-1,	59,	-1,	22,	44,	-1,	-1,	-1,	-1,	-1,	-1,	-1,	-1,	36,	-1,	49,	63,	31,	-1,	21|
-1,	25,	-1,	-1,	63,	36,	-1,	41,	-1,	-1,	-1,	-1,	31,	-1,	-1,	19,	55,	40,	44,	4,	-1,	-1,	-1,	-1,	-1,	2,	-1,	34,	-1,	-1,	-1,	64,	-1,	49,	-1,	50,	-1,	-1,	-1,	-1,	48,	-1,	-1,	-1,	46,	-1,	26,	-1,	10,	38,	-1,	-1,	18,	47,	3,	-1,	42,	-1,	-1,	-1,	-1,	-1,	7,	54|];
