sudoku-ls/benchmarks_LEQ/INST_64x64/40/inst64x64_40_98.txt
8
1
-1	4	6	3	-1	-1	54	44	-1	-1	38	-1	-1	-1	9	11	20	-1	12	2	-1	63	34	-1	46	52	7	53	47	64	41	-1	40	-1	-1	-1	-1	-1	-1	21	10	26	43	48	27	-1	-1	-1	-1	24	28	13	42	-1	37	-1	30	-1	-1	57	-1	-1	-1	15
17	16	63	-1	42	-1	-1	26	-1	-1	-1	-1	53	-1	-1	-1	28	-1	-1	-1	-1	41	-1	21	22	-1	38	-1	-1	-1	13	49	8	-1	-1	19	-1	30	-1	39	4	54	-1	-1	-1	-1	-1	-1	-1	-1	3	-1	-1	15	62	23	-1	-1	-1	40	-1	50	-1	-1
-1	-1	-1	-1	-1	19	-1	-1	-1	-1	10	41	-1	-1	-1	30	50	-1	61	-1	-1	-1	56	48	-1	-1	26	23	-1	-1	-1	9	-1	-1	-1	-1	-1	2	-1	-1	20	-1	-1	-1	6	11	-1	-1	60	-1	-1	14	58	-1	45	-1	-1	-1	-1	55	12	4	18	42
58	62	-1	1	-1	-1	-1	30	-1	-1	-1	-1	15	-1	-1	-1	-1	-1	7	-1	-1	46	-1	-1	-1	-1	-1	-1	-1	-1	61	18	12	36	-1	-1	17	-1	-1	-1	37	-1	-1	19	-1	-1	-1	-1	-1	11	-1	53	-1	-1	29	-1	13	-1	-1	44	64	-1	38	-1
-1	-1	60	-1	-1	-1	-1	-1	-1	-1	-1	58	-1	-1	27	34	32	-1	-1	30	4	62	-1	19	31	40	-1	50	35	56	28	-1	49	38	15	-1	-1	45	-1	-1	14	55	-1	21	3	18	-1	57	39	5	6	43	-1	10	36	44	-1	-1	-1	24	-1	52	-1	-1
-1	-1	-1	-1	29	15	5	36	-1	-1	32	-1	-1	-1	61	-1	-1	-1	-1	-1	-1	-1	-1	-1	-1	-1	-1	21	-1	-1	-1	17	-1	-1	-1	23	47	-1	51	-1	58	39	-1	-1	13	42	-1	50	64	-1	-1	-1	-1	57	-1	-1	-1	48	-1	27	33	-1	54	31
-1	-1	-1	-1	-1	-1	-1	-1	16	-1	8	26	-1	-1	-1	-1	-1	31	64	-1	5	-1	-1	15	58	19	-1	54	-1	-1	37	-1	-1	18	9	-1	48	-1	1	28	-1	-1	62	-1	-1	-1	-1	45	-1	-1	-1	-1	-1	-1	-1	40	-1	-1	36	-1	-1	3	21	53
45	37	-1	-1	61	41	-1	-1	49	-1	50	-1	35	-1	64	-1	13	10	-1	14	-1	22	-1	-1	33	5	-1	-1	4	-1	-1	42	-1	-1	-1	54	63	53	6	44	60	-1	2	15	-1	17	31	59	-1	-1	18	-1	21	-1	-1	-1	58	-1	11	8	34	-1	43	-1
-1	1	9	-1	-1	-1	29	-1	14	-1	-1	-1	-1	-1	54	-1	38	-1	4	34	-1	33	-1	52	-1	-1	35	58	-1	-1	-1	-1	-1	-1	-1	-1	-1	43	44	-1	-1	3	-1	5	-1	62	-1	-1	18	36	17	-1	-1	-1	60	-1	-1	56	-1	-1	-1	-1	-1	-1
-1	-1	-1	46	53	55	-1	56	36	58	-1	-1	-1	12	-1	-1	6	-1	-1	-1	-1	-1	-1	-1	14	-1	-1	5	-1	39	-1	54	-1	-1	-1	-1	13	-1	33	-1	-1	-1	-1	38	28	10	7	-1	-1	-1	22	4	-1	16	-1	63	-1	-1	-1	-1	19	32	-1	-1
2	31	-1	33	43	-1	-1	-1	32	-1	-1	-1	-1	-1	-1	15	-1	-1	9	-1	28	-1	-1	3	53	-1	-1	13	22	55	21	4	-1	-1	-1	-1	20	-1	23	-1	-1	58	17	-1	-1	48	-1	-1	-1	-1	-1	-1	-1	25	-1	-1	-1	-1	-1	-1	51	-1	-1	-1
-1	-1	-1	27	-1	-1	-1	11	-1	-1	-1	-1	2	7	-1	-1	-1	62	-1	-1	-1	37	-1	50	-1	44	-1	-1	-1	-1	-1	-1	-1	-1	4	8	-1	52	-1	63	6	-1	-1	-1	-1	14	40	-1	-1	-1	-1	-1	-1	-1	-1	-1	54	39	-1	-1	18	20	-1	-1
-1	-1	7	-1	26	-1	48	42	-1	-1	31	3	-1	27	11	-1	16	-1	-1	63	40	56	-1	-1	20	-1	-1	-1	-1	-1	-1	-1	19	-1	61	-1	29	-1	-1	49	-1	44	-1	-1	-1	-1	23	33	54	-1	-1	50	51	-1	1	-1	53	-1	-1	-1	62	17	14	-1
-1	57	-1	-1	-1	-1	62	-1	-1	-1	21	37	55	-1	-1	29	19	60	-1	-1	-1	53	-1	44	-1	43	-1	8	-1	32	-1	-1	-1	-1	-1	-1	-1	-1	-1	54	-1	-1	-1	-1	30	-1	-1	61	-1	-1	33	23	-1	56	-1	-1	12	-1	-1	11	-1	16	-1	50
16	50	-1	54	-1	-1	-1	37	-1	-1	-1	-1	-1	56	-1	-1	8	-1	-1	-1	29	-1	-1	-1	12	23	-1	-1	-1	-1	-1	51	-1	-1	-1	47	-1	18	-1	-1	-1	46	55	-1	-1	-1	2	11	20	21	-1	-1	6	40	41	-1	-1	13	24	5	-1	-1	64	-1
-1	-1	-1	20	40	-1	-1	10	35	16	-1	-1	-1	50	63	45	61	-1	21	-1	-1	-1	48	54	-1	-1	-1	-1	42	52	-1	-1	-1	15	12	36	-1	-1	-1	6	27	-1	47	8	1	53	-1	-1	-1	-1	14	-1	-1	58	9	-1	22	-1	49	-1	55	-1	-1	-1
9	-1	17	-1	30	38	27	-1	-1	59	-1	-1	-1	-1	-1	-1	-1	-1	57	-1	53	-1	58	22	-1	13	-1	-1	-1	-1	10	63	-1	-1	-1	-1	-1	-1	-1	41	25	-1	-1	-1	43	-1	21	-1	-1	-1	62	35	46	28	-1	-1	19	-1	-1	-1	48	-1	-1	40
-1	21	46	-1	-1	-1	7	-1	-1	-1	-1	-1	20	-1	-1	-1	-1	-1	-1	55	-1	43	-1	-1	-1	-1	-1	-1	34	-1	-1	47	23	62	11	32	-1	44	8	-1	-1	60	4	-1	-1	37	59	-1	-1	10	39	-1	-1	42	-1	-1	-1	61	54	50	15	49	-1	-1
54	13	-1	51	-1	44	-1	-1	-1	-1	-1	-1	-1	-1	-1	-1	34	-1	39	37	10	-1	-1	2	-1	-1	20	-1	-1	-1	-1	-1	-1	57	47	-1	-1	35	-1	30	45	-1	-1	46	29	64	-1	-1	-1	9	-1	-1	15	-1	-1	-1	-1	-1	1	32	31	12	-1	-1
32	23	-1	14	8	-1	-1	33	54	-1	34	49	-1	-1	-1	-1	-1	-1	63	-1	-1	36	-1	-1	-1	22	-1	45	2	-1	-1	16	-1	-1	-1	-1	53	-1	-1	-1	44	-1	-1	-1	11	-1	-1	19	-1	-1	-1	-1	-1	-1	58	-1	-1	-1	-1	-1	-1	10	41	-1
47	-1	-1	-1	-1	64	-1	-1	6	50	-1	31	-1	-1	-1	-1	52	30	-1	20	41	-1	-1	-1	-1	-1	-1	-1	-1	27	-1	-1	-1	-1	-1	38	12	63	36	-1	-1	-1	-1	32	10	-1	-1	-1	-1	34	-1	-1	44	-1	-1	-1	11	-1	2	-1	-1	-1	13	-1
1	-1	53	37	-1	-1	-1	45	47	57	9	2	-1	10	-1	-1	-1	5	62	-1	25	21	32	-1	-1	36	-1	-1	33	-1	-1	-1	55	16	-1	-1	-1	-1	54	19	-1	-1	51	63	7	-1	-1	-1	12	20	-1	-1	-1	61	40	6	-1	8	58	-1	-1	-1	-1	-1
-1	-1	39	10	-1	-1	-1	-1	-1	32	45	61	-1	-1	-1	-1	-1	24	-1	35	-1	-1	-1	47	49	7	8	-1	64	-1	-1	-1	-1	50	-1	-1	-1	-1	-1	27	12	-1	-1	41	-1	-1	-1	-1	-1	56	-1	57	-1	63	-1	54	-1	46	26	21	38	43	33	44
-1	-1	-1	-1	12	-1	-1	-1	60	-1	-1	-1	27	21	-1	-1	-1	-1	-1	6	44	-1	-1	-1	59	-1	19	-1	-1	41	-1	35	-1	-1	-1	-1	10	-1	-1	-1	-1	-1	-1	-1	54	47	-1	30	-1	-1	-1	-1	-1	-1	55	-1	4	-1	-1	-1	53	18	45	-1
-1	-1	61	56	20	-1	-1	17	1	-1	-1	-1	-1	-1	-1	-1	26	-1	-1	10	-1	-1	-1	32	-1	-1	-1	-1	-1	-1	8	55	21	-1	5	-1	42	6	-1	-1	47	-1	-1	-1	53	-1	30	-1	-1	-1	-1	-1	36	-1	-1	58	18	-1	-1	-1	-1	54	-1	12
-1	53	12	-1	-1	-1	41	-1	-1	-1	55	-1	-1	-1	-1	-1	-1	-1	-1	11	30	-1	-1	38	-1	-1	47	-1	-1	45	-1	-1	-1	-1	-1	-1	-1	-1	-1	-1	-1	63	61	-1	8	-1	4	18	-1	-1	-1	16	-1	-1	10	-1	-1	60	-1	-1	14	-1	37	-1
-1	-1	-1	-1	-1	-1	-1	4	8	-1	16	-1	-1	29	59	-1	-1	-1	-1	61	-1	14	-1	-1	-1	-1	48	25	-1	-1	-1	-1	-1	-1	-1	-1	-1	-1	-1	-1	-1	-1	39	51	-1	-1	60	-1	-1	30	-1	-1	57	7	-1	56	3	-1	28	-1	45	47	-1	17
-1	-1	-1	-1	-1	26	-1	32	-1	-1	-1	-1	-1	-1	-1	51	-1	-1	41	-1	-1	-1	49	56	-1	14	-1	-1	-1	-1	-1	-1	36	12	-1	-1	54	40	-1	-1	-1	23	-1	-1	-1	-1	46	29	-1	6	-1	-1	35	62	15	-1	31	42	8	48	2	-1	-1	52
21	-1	47	39	16	60	-1	57	12	-1	-1	48	10	52	49	-1	33	6	-1	-1	15	55	37	-1	-1	-1	-1	-1	-1	-1	-1	-1	29	26	-1	-1	11	-1	24	7	-1	2	-1	-1	-1	-1	35	-1	5	46	-1	-1	-1	9	61	-1	-1	58	-1	-1	59	36	-1	-1
37	-1	-1	5	-1	1	30	-1	21	-1	-1	-1	-1	36	-1	-1	-1	64	22	-1	-1	18	-1	40	-1	-1	56	57	-1	60	-1	34	63	41	23	46	16	-1	47	-1	-1	-1	48	11	-1	33	-1	-1	17	49	-1	-1	-1	-1	-1	-1	9	-1	-1	38	50	26	-1	-1
24	54	-1	2	14	9	31	-1	-1	18	61	-1	5	-1	58	-1	39	42	-1	-1	-1	13	-1	-1	38	64	-1	-1	28	-1	-1	-1	62	20	30	48	-1	19	-1	4	50	57	32	-1	-1	-1	1	-1	-1	-1	-1	27	26	-1	-1	52	-1	-1	-1	-1	29	44	-1	-1
-1	-1	-1	-1	-1	-1	-1	-1	-1	20	-1	-1	9	57	26	-1	-1	-1	8	52	-1	-1	29	-1	24	4	-1	35	41	-1	-1	31	-1	32	58	-1	-1	37	-1	-1	-1	14	-1	3	56	-1	-1	6	63	-1	45	54	50	12	-1	-1	15	-1	25	64	16	-1	-1	-1
31	44	-1	-1	-1	20	3	46	-1	11	7	-1	37	2	-1	27	-1	32	23	-1	1	48	47	-1	10	-1	54	41	-1	-1	-1	30	-1	-1	16	-1	21	29	-1	-1	-1	42	-1	-1	22	51	56	36	-1	-1	-1	49	-1	-1	-1	-1	-1	-1	61	33	-1	-1	-1	-1
40	-1	-1	-1	-1	11	-1	-1	26	-1	24	-1	46	-1	-1	25	27	-1	-1	-1	-1	29	28	36	-1	58	-1	-1	-1	-1	51	-1	-1	-1	39	-1	57	-1	53	-1	-1	17	33	-1	37	-1	48	7	31	-1	-1	10	30	6	18	41	-1	-1	63	-1	-1	-1	-1	-1
-1	-1	22	7	48	-1	-1	-1	-1	-1	13	1	60	32	-1	63	49	55	-1	45	54	-1	-1	-1	29	-1	-1	56	-1	-1	-1	-1	-1	-1	-1	33	-1	-1	-1	-1	-1	5	-1	-1	-1	26	-1	-1	-1	-1	-1	21	4	37	14	-1	-1	18	-1	-1	-1	-1	-1	-1
-1	17	4	-1	-1	-1	49	53	-1	-1	48	-1	-1	-1	-1	-1	-1	-1	-1	22	60	12	64	-1	-1	20	-1	-1	-1	-1	25	-1	-1	-1	40	-1	1	24	-1	-1	-1	-1	21	-1	-1	-1	32	-1	-1	51	55	15	-1	8	-1	62	10	54	34	-1	-1	-1	59	-1
-1	-1	-1	-1	-1	58	-1	23	61	62	-1	-1	-1	8	-1	14	-1	-1	24	15	-1	-1	10	-1	-1	-1	-1	38	-1	-1	44	-1	4	-1	27	-1	37	-1	-1	-1	39	30	3	1	57	-1	6	40	-1	-1	-1	-1	13	5	50	-1	-1	-1	-1	-1	20	-1	-1	45
-1	47	-1	38	1	-1	-1	-1	17	-1	-1	-1	-1	-1	-1	-1	-1	58	-1	46	50	-1	-1	-1	-1	-1	-1	-1	-1	61	45	-1	64	-1	63	-1	-1	62	-1	-1	-1	-1	-1	24	-1	-1	-1	4	23	48	-1	-1	54	53	-1	-1	56	37	-1	36	25	6	-1	-1
56	-1	30	-1	-1	-1	-1	-1	4	15	-1	-1	-1	-1	31	-1	-1	-1	-1	53	-1	-1	-1	-1	-1	-1	64	-1	48	-1	57	-1	42	17	-1	20	5	-1	-1	-1	54	-1	-1	-1	-1	-1	-1	-1	11	40	-1	46	-1	-1	-1	-1	-1	47	-1	-1	43	2	-1	32
-1	-1	-1	-1	-1	-1	8	-1	44	52	-1	-1	-1	-1	34	-1	-1	-1	5	-1	-1	-1	-1	6	26	31	-1	-1	-1	-1	-1	-1	3	-1	54	-1	-1	12	-1	-1	-1	-1	-1	-1	25	15	47	-1	-1	-1	-1	-1	-1	29	-1	36	-1	-1	-1	-1	11	-1	57	-1
30	60	-1	-1	-1	-1	12	-1	-1	64	-1	-1	-1	-1	55	-1	-1	-1	-1	44	-1	7	3	-1	-1	29	-1	-1	-1	-1	-1	-1	13	21	-1	63	59	61	19	58	-1	47	6	4	-1	-1	42	-1	41	-1	-1	17	-1	24	-1	-1	36	52	-1	-1	-1	-1	35	33
23	-1	-1	48	-1	27	63	-1	-1	-1	-1	24	-1	-1	53	-1	-1	59	-1	-1	13	-1	-1	-1	-1	-1	-1	-1	45	42	18	-1	-1	-1	-1	-1	28	-1	16	-1	55	-1	26	-1	61	-1	-1	-1	-1	-1	-1	-1	-1	19	-1	3	-1	-1	-1	62	30	-1	-1	60
49	-1	58	13	28	43	-1	-1	-1	2	-1	54	61	33	56	52	57	-1	34	-1	64	-1	-1	-1	-1	-1	22	63	24	-1	23	7	-1	-1	37	17	8	-1	60	-1	36	11	31	-1	-1	-1	-1	-1	50	-1	12	-1	-1	35	30	4	26	25	-1	19	3	-1	6	-1
-1	20	36	41	44	-1	-1	31	-1	10	-1	12	49	19	51	-1	46	-1	16	-1	24	4	43	5	-1	53	-1	30	-1	-1	-1	-1	11	-1	-1	9	-1	47	32	26	-1	13	-1	-1	64	-1	-1	-1	-1	39	63	52	-1	-1	57	-1	28	-1	42	-1	-1	-1	-1	-1
-1	-1	24	6	-1	-1	-1	-1	-1	-1	-1	-1	-1	-1	-1	8	51	41	-1	-1	-1	28	-1	-1	-1	21	33	-1	-1	36	15	-1	-1	-1	29	-1	7	-1	-1	-1	43	-1	-1	57	-1	63	39	-1	16	-1	25	60	23	54	-1	-1	-1	34	-1	-1	10	45	27	-1
-1	15	1	-1	3	2	37	-1	22	26	42	13	-1	16	45	-1	-1	21	-1	-1	61	58	17	-1	6	-1	28	-1	10	-1	-1	20	-1	23	-1	-1	-1	27	12	-1	35	-1	-1	-1	-1	46	-1	-1	59	62	38	44	-1	43	-1	-1	-1	-1	-1	-1	7	-1	-1	-1
-1	-1	-1	16	-1	40	33	25	43	-1	-1	62	57	44	36	-1	-1	-1	-1	-1	27	52	30	63	55	-1	-1	64	49	4	-1	38	-1	-1	-1	-1	-1	3	-1	-1	-1	59	20	-1	-1	-1	-1	60	21	-1	-1	-1	-1	13	53	-1	-1	-1	-1	-1	22	39	50	-1
18	-1	54	22	-1	-1	19	-1	-1	-1	-1	-1	17	-1	-1	-1	1	26	-1	-1	-1	-1	25	-1	44	35	-1	-1	57	58	-1	-1	50	-1	-1	15	-1	-1	-1	-1	30	-1	24	56	-1	-1	-1	41	33	32	-1	-1	-1	27	-1	-1	-1	20	-1	-1	-1	-1	51	-1
-1	-1	-1	-1	-1	6	-1	-1	-1	-1	-1	22	-1	-1	-1	57	31	34	-1	5	36	-1	20	-1	47	-1	13	-1	-1	-1	-1	-1	-1	40	-1	-1	-1	38	-1	-1	-1	-1	-1	44	-1	-1	-1	-1	27	-1	41	-1	-1	-1	-1	8	50	-1	-1	-1	49	-1	-1	-1
25	48	10	-1	-1	-1	-1	-1	-1	-1	-1	44	4	5	-1	-1	41	-1	56	26	-1	-1	61	-1	51	-1	32	-1	58	-1	46	60	-1	-1	-1	11	-1	-1	14	34	13	-1	57	-1	15	9	12	-1	-1	-1	-1	-1	-1	-1	24	-1	-1	-1	-1	39	-1	-1	-1	-1
-1	-1	-1	-1	-1	-1	32	-1	-1	-1	26	-1	48	41	39	-1	-1	51	40	25	-1	-1	2	-1	-1	-1	-1	-1	-1	-1	-1	5	60	-1	1	-1	-1	13	28	-1	-1	-1	27	14	49	-1	45	-1	-1	52	19	37	17	50	46	-1	-1	11	33	-1	-1	-1	-1	16
3	-1	29	-1	33	-1	-1	61	42	13	-1	-1	-1	11	-1	-1	-1	18	54	27	45	10	-1	-1	-1	30	25	-1	-1	-1	-1	-1	2	-1	-1	24	-1	-1	-1	-1	-1	31	-1	-1	-1	-1	-1	-1	36	-1	40	-1	60	-1	-1	-1	8	-1	-1	-1	-1	-1	-1	-1
38	34	-1	-1	17	13	39	2	-1	49	-1	16	1	-1	7	55	-1	43	-1	21	-1	-1	44	59	9	45	63	22	62	-1	31	24	15	54	-1	-1	-1	5	37	35	40	33	64	10	-1	-1	-1	51	14	61	4	-1	32	3	6	-1	-1	-1	-1	30	36	-1	25	18
42	-1	-1	-1	24	14	-1	-1	63	-1	51	-1	-1	-1	25	21	60	22	46	50	-1	-1	-1	-1	-1	-1	-1	-1	-1	-1	53	-1	-1	-1	-1	-1	-1	16	-1	-1	-1	19	37	-1	-1	2	-1	48	-1	-1	59	-1	-1	-1	5	-1	-1	-1	-1	-1	-1	58	-1	-1
8	40	-1	52	49	-1	-1	-1	62	61	-1	28	36	9	32	50	15	-1	-1	-1	-1	11	-1	58	16	38	-1	-1	-1	2	-1	-1	33	-1	-1	27	39	-1	25	-1	41	-1	-1	-1	-1	-1	-1	-1	55	-1	-1	-1	1	-1	-1	34	-1	-1	59	-1	-1	51	-1	-1
50	-1	18	-1	5	22	-1	-1	-1	17	-1	23	3	-1	10	59	-1	14	-1	-1	-1	-1	-1	-1	-1	-1	-1	40	-1	-1	64	-1	-1	-1	-1	41	55	48	7	47	-1	-1	-1	-1	24	-1	36	-1	-1	-1	21	-1	9	44	-1	13	-1	29	-1	6	46	27	62	34
-1	-1	-1	-1	58	8	-1	-1	-1	-1	-1	-1	-1	-1	-1	-1	-1	-1	-1	-1	-1	-1	36	28	-1	60	-1	20	14	-1	6	48	-1	-1	-1	-1	-1	-1	-1	-1	-1	-1	-1	-1	2	-1	-1	39	-1	-1	29	-1	37	11	-1	-1	-1	38	-1	-1	-1	-1	44	64
48	-1	50	24	-1	-1	34	7	-1	-1	1	-1	56	38	-1	49	45	3	-1	-1	-1	-1	-1	-1	42	-1	-1	33	44	-1	-1	8	-1	-1	62	-1	-1	-1	-1	-1	21	-1	29	58	-1	-1	54	-1	28	22	36	5	-1	-1	-1	-1	-1	-1	-1	16	-1	-1	-1	-1
-1	-1	-1	61	46	-1	-1	-1	-1	-1	-1	36	-1	62	-1	-1	58	38	11	-1	48	54	-1	-1	-1	-1	43	-1	31	-1	-1	-1	-1	7	-1	-1	-1	42	2	45	16	-1	41	-1	-1	6	-1	15	-1	-1	-1	-1	-1	52	-1	35	59	28	-1	-1	-1	-1	-1	22
52	-1	33	57	-1	56	11	54	-1	-1	63	39	34	45	29	16	-1	-1	50	9	-1	-1	62	24	28	-1	-1	32	38	-1	4	-1	-1	5	-1	-1	-1	-1	26	60	-1	7	13	-1	-1	-1	64	17	-1	41	-1	-1	-1	2	-1	-1	35	19	-1	-1	23	-1	10	-1
-1	-1	-1	-1	-1	5	-1	-1	-1	-1	-1	-1	28	-1	-1	9	-1	37	-1	-1	12	26	18	-1	-1	63	-1	-1	15	-1	-1	-1	-1	29	38	21	36	-1	-1	33	11	-1	-1	-1	52	23	55	-1	-1	57	-1	-1	43	-1	-1	46	2	30	-1	51	-1	-1	3	-1
62	-1	-1	-1	22	29	-1	-1	52	-1	-1	-1	-1	53	-1	24	64	-1	-1	-1	43	-1	41	-1	-1	9	-1	1	56	7	-1	37	46	-1	55	-1	40	-1	-1	-1	-1	-1	-1	47	-1	20	19	63	-1	50	16	-1	33	48	23	-1	39	-1	-1	-1	17	-1	15	26
20	38	-1	-1	4	30	18	-1	13	-1	-1	-1	-1	64	-1	37	-1	-1	-1	-1	-1	-1	-1	-1	45	16	-1	-1	-1	-1	55	58	-1	-1	48	-1	35	-1	57	-1	-1	-1	8	-1	-1	-1	28	-1	44	-1	15	1	-1	-1	-1	60	-1	36	50	49	63	-1	40	-1
-1	-1	-1	45	63	36	-1	-1	-1	-1	-1	32	-1	-1	-1	19	-1	-1	44	4	22	-1	-1	27	57	2	-1	-1	-1	-1	59	-1	53	-1	-1	50	56	-1	43	-1	-1	-1	30	33	-1	12	26	-1	10	-1	-1	62	-1	47	3	-1	-1	1	37	20	52	-1	7	-1
64 
10 36 23 42
49 64 36 27
59 11 51 30
4 14 61 61
14 23 23 48
26 29 33 26
19 49 61 55
61 15 53 21
21 31 12 39
47 5 31 64
5 23 22 5
59 36 60 27
29 48 34 5
33 30 60 38
44 60 13 4
40 18 8 21
64 30 40 50
40 5 14 6
32 21 45 43
55 8 30 48
59 13 31 45
14 44 38 16
1 5 51 21
4 7 30 41
41 11 37 56
37 7 21 19
30 64 25 1
47 53 23 7
12 49 18 12
49 4 38 17
38 22 26 34
56 22 26 13
31 54 27 10
17 63 11 53
33 33 30 15
27 46 50 38
16 33 5 61
3 56 62 42
9 54 11 8
27 16 57 4
5 59 37 24
21 7 47 2
26 10 4 3
61 1 38 51
39 35 54 57
8 54 52 41
20 52 45 20
37 63 49 28
14 19 40 42
20 56 9 31
23 57 58 19
3 7 45 8
35 10 52 7
37 5 55 55
6 56 19 3
11 41 18 63
54 49 51 61
1 38 36 48
30 3 48 64
22 28 38 45
39 46 28 62
27 26 45 42
5 58 28 13
14 38 46 4
